17	4	3
15	15	9	11	22	33	29	
0	0	0	0	0	9	8	3	5	2	2	3	2	3	4
8	0	0	0	3	4	9	9	2	9	7	3	5	10	11
4	0	1	0	0	3	3	1	4	4	9	3	5	8	15
9	0	0	0	4	7	3	8	7	2	1	1	7
9	8	0	0	0	2	1	8	2	10	1	3	6	16	17
50	0	0	0	2	3	9	8	6	3	9	1	17
125	0	0	4	0	7	7	8	6	8	6	3	12	15	17
25	0	3	0	0	3	1	8	3	4	2	2	9	17
50	0	0	0	5	1	1	4	8	8	5	2	14	17
150	0	10	0	0	9	10	6	6	1	5	2	13	17
225	4	0	0	0	6	4	3	4	9	6	1	17
25	0	0	9	0	2	6	2	9	1	10	3	14	16	17
10	7	0	0	0	5	3	10	2	5	4	1	17
10	0	9	0	0	4	6	4	7	4	2	1	17
5	2	0	0	0	2	2	1	7	7	1	1	17
7	0	10	0	0	2	3	4	5	6	3	1	17
0	0	0	0	0	10	8	8	2	7	9	0
